benchmarks_vrp/CMT12/no_cluster/CMT12_6.vrp
NAME: CMT12_6
TYPE: CVRP
COMMENT: 819.56 - Cluster Nr.6
DIMENSION: 14
CAPACITY: 200
EDGE_WEIGHT_TYPE: EUC_2D
NODE_COORD_TYPE: TWOD_COORDS
NODE_COORD_SECTION: 
12 40 66
13 42 66
14 42 65
2 38 68
4 40 69
1 45 70
7 58 75
5 42 68
8 45 68
10 60 60
3 40 50
6 60 80
9 45 65
11 55 80
DEPOT_SECTION: 
3
-1
DEMAND_SECTION: 
5 10
11 10
2 20
4 20
6 10
7 20
10 10
9 20
8 10
1 30
12 20
13 10
14 10
3 0
EOF
