benchmarks_vrp/CMT12/no_cluster/CMT12_6.tour
NAME: CMT12_6 solution
TYPE: TOUR
TOUR_SECTION:
3 10 7 6 11 1 8 9 14 13 5 4 2 12 -1
-1
EOF